BEGIN IONS
PEPMASS=381.10199
CHARGE=0+
FILENAME=specs_ms.pklbin
RTINSECONDS=407.038788
INSTRUMENT=ion trap
TITLE=Scan Number: 378
SCANS=378
FORMULA=C21H16O7
153.016998 706.539978
154.020996 53.459999
179.035004 201.117996
209.057999 77.747002
213.054001 130.404999
229.085007 136.238998
237.054993 242.029007
255.065002 349.341003
256.066986 74.657997
297.076996 28.462000
END IONS